c read Graph
c width = 53
c time = 310 ms
c width = 4
c time = 437 ms
c width = 4
c time = 4246 ms
s td 60 5 64
b 1 1 2 17
b 2 2 3 17 18
b 3 14 15 31 32
b 4 3 17 18 33
b 5 14 31 32 48
b 6 33 34 50 51
b 7 47 48 62 63
b 8 3 4 5 20
b 9 5 6 7 22
b 10 7 8 9 24
b 11 9 10 11 26
b 12 11 12 13 28
b 13 3 18 19 33 34
b 14 3 19 33 34 51
b 15 3 19 34 35 51
b 16 3 19 20 35 51
b 17 3 5 20 35 51
b 18 5 20 35 36 51
b 19 5 20 21 36 51
b 20 5 21 36 51 52
b 21 5 21 36 37 52
b 22 5 21 22 37 52
b 23 5 7 22 37 52
b 24 7 22 37 52 53
b 25 7 22 37 38 53
b 26 7 22 23 38 53
b 27 7 23 38 53 54
b 28 7 23 38 39 54
b 29 7 23 24 39 54
b 30 7 9 24 39 54
b 31 9 24 39 54 55
b 32 9 24 39 40 55
b 33 9 24 25 40 55
b 34 9 25 40 55 56
b 35 9 25 40 41 56
b 36 9 25 26 41 56
b 37 9 11 26 41 56
b 38 11 26 41 56 57
b 39 11 26 41 42 57
b 40 11 26 27 42 57
b 41 11 27 42 57 58
b 42 11 27 42 43 58
b 43 11 27 28 43 58
b 44 11 13 28 43 58
b 45 13 28 43 58 59
b 46 13 28 43 44 59
b 47 13 28 29 44 59
b 48 13 29 44 59 60
b 49 13 29 44 45 60
b 50 13 29 45 60 61
b 51 13 14 29 45 61
b 52 14 29 30 45 61
b 53 14 30 45 46 61
b 54 14 30 31 46 61
b 55 14 31 46 48 61
b 56 31 46 47 48 61
b 57 46 47 48 61 62
b 58 48 63 64
b 59 33 49 50
b 60 15 16 32
1 2
2 4
3 60
3 5
4 13
5 55
6 59
6 14
7 58
7 57
8 17
9 23
10 30
11 37
12 44
13 14
14 15
15 16
16 17
17 18
18 19
19 20
20 21
21 22
22 23
23 24
24 25
25 26
26 27
27 28
28 29
29 30
30 31
31 32
32 33
33 34
34 35
35 36
36 37
37 38
38 39
39 40
40 41
41 42
42 43
43 44
44 45
45 46
46 47
47 48
48 49
49 50
50 51
51 52
52 53
53 54
54 55
55 56
56 57
